HmaxDs = 1.500000
HmaxUB_percent = 1.026193
HmaxUB_real = 4306.030545
FTnetDs = 1.000000
FTnetUB_percent = 1.918264
FTnetUB_real = 8555.209404
TIFgap = 0.300000
LimCIPF = 60.6129069
SCIP version 1.1.0 [precision: 8 byte] [memory: block] [mode: optimized] [LP solver: Clp 1.8.2]
Copyright (c) 2002-2008 Konrad-Zuse-Zentrum fuer Informationstechnik Berlin (ZIB)

reading user parameter file </home/fabio/docs/hierarquia/models/scip.set>

read problem <data.N30.I1.s1.cluster5.T4.GL1.W2.TIFgap0.3.mps.gz>
============

original problem has 155 variables (78 bin, 0 int, 0 impl, 77 cont) and 91 constraints

solve problem
=============

presolving:
(round 1) 3 del vars, 3 del conss, 4 chg bounds, 0 chg sides, 24 chg coeffs, 0 upgd conss, 0 impls, 24 clqs
(round 2) 5 del vars, 3 del conss, 4 chg bounds, 1 chg sides, 24 chg coeffs, 0 upgd conss, 0 impls, 24 clqs
(round 3) 5 del vars, 3 del conss, 4 chg bounds, 3 chg sides, 24 chg coeffs, 0 upgd conss, 0 impls, 24 clqs
(round 4) 5 del vars, 4 del conss, 4 chg bounds, 3 chg sides, 24 chg coeffs, 25 upgd conss, 0 impls, 24 clqs
(round 5) 40 del vars, 4 del conss, 4 chg bounds, 3 chg sides, 24 chg coeffs, 25 upgd conss, 392 impls, 16 clqs
(round 6) 40 del vars, 12 del conss, 4 chg bounds, 3 chg sides, 24 chg coeffs, 25 upgd conss, 392 impls, 16 clqs
presolving (7 rounds):
 40 deleted vars, 12 deleted constraints, 4 tightened bounds, 0 added holes, 3 changed sides, 24 changed coefficients
 392 implications, 16 cliques
presolved problem has 115 variables (43 bin, 0 int, 0 impl, 72 cont) and 79 constraints
      1 constraints of type <knapsack>
     16 constraints of type <setppc>
     62 constraints of type <linear>
Presolving Time: 0.02

 time | node  | left  |LP iter| mem |mdpt |frac |vars |cons |ccons|cols |rows |cuts |confs|strbr|  dualbound   | primalbound  |  gap   
  0.0s|     1 |     0 |    53 | 450k|   0 |  26 | 115 |  79 |  79 | 115 |  79 |   0 |   0 |   0 | 1.474974e+03 |      --      |    Inf 
  0.1s|     1 |     0 |   267 | 494k|   0 |  25 | 115 |  79 |  79 | 115 | 106 |  27 |   0 |   0 | 5.021760e+03 |      --      |    Inf 
  0.1s|     1 |     0 |   317 | 510k|   0 |   - | 115 |  70 |  70 | 115 | 113 |  49 |   0 |   0 |      --      |      --      |   0.00%
  0.1s|     1 |     0 |   317 | 510k|   0 |   - | 115 |  70 |  70 | 115 | 113 |  49 |   0 |   0 |      --      |      --      |   0.00%

SCIP Status        : problem is solved [infeasible]
Solving Time (sec) : 0.13
Solving Nodes      : 1
Primal Bound       : +1.00000000000000e+20 (0 solutions)
Dual Bound         : +1.00000000000000e+20
Gap                : 0.00 %

primal solution:
================

no solution available

Statistics
==========

SCIP Status        : problem is solved [infeasible]
Solving Time       :       0.13
Original Problem   :
  Problem name     : labtel
  Variables        : 155 (78 binary, 0 integer, 0 implicit integer, 77 continuous)
  Constraints      : 91 initial, 91 maximal
Presolved Problem  :
  Problem name     : t_labtel
  Variables        : 115 (43 binary, 0 integer, 0 implicit integer, 72 continuous)
  Constraints      : 79 initial, 79 maximal
Presolvers         :       Time  FixedVars   AggrVars   ChgTypes  ChgBounds   AddHoles    DelCons   ChgSides   ChgCoefs
  trivial          :       0.00          0          0          0          0          0          0          0          0
  dualfix          :       0.00          0          0          0          0          0          0          0          0
  boundshift       :       0.00          0          0          0          0          0          0          0          0
  inttobinary      :       0.00          0          0          0          0          0          0          0          0
  implics          :       0.00          0          0          0          0          0          0          0          0
  probing          :       0.01         35          0          0          0          0          0          0          0
  knapsack         :       0.01          0          0          0          0          0          0          0          0
  setppc           :       0.00          0          0          0          0          0          8          0          0
  linear           :       0.00          0          5          0          4          0          4          3         24
  root node        :          -         19          -          -         19          -          -          -          -
Constraints        :     Number  #Separate #Propagate    #EnfoLP    #EnfoPS    Cutoffs    DomReds       Cuts      Conss   Children
  integral         :          0          0          0          0          0          0          0          0          0          0
  knapsack         :          1          2        157          0          0          0          0          0          0          0
  setppc           :         16          2        157          0          0          5         16          0          0          0
  linear           :         62          2        152          0          0          5          2          0          0          0
  countsols        :          0          0          0          0          0          0          0          0          0          0
Constraint Timings :  TotalTime   Separate  Propagate     EnfoLP     EnfoPS
  integral         :       0.00       0.00       0.00       0.00       0.00
  knapsack         :       0.00       0.00       0.00       0.00       0.00
  setppc           :       0.00       0.00       0.00       0.00       0.00
  linear           :       0.01       0.00       0.01       0.00       0.00
  countsols        :       0.00       0.00       0.00       0.00       0.00
Propagators        :       Time      Calls    Cutoffs    DomReds
  rootredcost      :       0.00          0          0          0
  pseudoobj        :       0.00          7          1          0
Conflict Analysis  :       Time      Calls    Success  Conflicts   Literals    Reconvs ReconvLits   LP Iters
  propagation      :       0.00          0          0          0        0.0          0        0.0          -
  infeasible LP    :       0.00          0          0          0        0.0          0        0.0          0
  bound exceed. LP :       0.00          0          0          0        0.0          0        0.0          0
  strong branching :       0.00          0          0          0        0.0          0        0.0          0
  pseudo solution  :       0.00          0          0          0        0.0          0        0.0          -
  applied globally :          -          -          -          0        0.0          -          -          -
  applied locally  :          -          -          -          0        0.0          -          -          -
Separators         :       Time      Calls    Cutoffs    DomReds       Cuts      Conss
  cut pool         :       0.00          1          -          -          1          -    (maximal pool size: 84)
  redcost          :       0.00          2          0          0          0          0
  impliedbounds    :       0.00          2          0          0          9          0
  intobj           :       0.00          0          0          0          0          0
  gomory           :       0.00          2          0          0         12          0
  strongcg         :       0.00          2          0          0          1          0
  cmir             :       0.02          2          0          0         42          0
  flowcover        :       0.08          2          0          0         29          0
  clique           :       0.00          2          0          0          1          0
  zerohalf         :       0.00          0          0          0          0          0
  mcf              :       0.00          0          0          0          0          0
Pricers            :       Time      Calls       Vars
  problem variables:       0.00          0          0
Branching Rules    :       Time      Calls    Cutoffs    DomReds       Cuts      Conss   Children
  pscost           :       0.00          0          0          0          0          0          0
  inference        :       0.00          0          0          0          0          0          0
  mostinf          :       0.00          0          0          0          0          0          0
  leastinf         :       0.00          0          0          0          0          0          0
  fullstrong       :       0.00          0          0          0          0          0          0
  allfullstrong    :       0.00          0          0          0          0          0          0
  random           :       0.00          0          0          0          0          0          0
  relpscost        :       0.00          0          0          0          0          0          0
Primal Heuristics  :       Time      Calls      Found
  LP solutions     :       0.00          -          0
  pseudo solutions :       0.00          -          0
  simplerounding   :       0.00          0          0
  rounding         :       0.00          2          0
  shifting         :       0.00          2          0
  intshifting      :       0.00          0          0
  oneopt           :       0.00          0          0
  fixandinfer      :       0.00          0          0
  feaspump         :       0.01          1          0
  coefdiving       :       0.00          0          0
  pscostdiving     :       0.00          0          0
  fracdiving       :       0.00          0          0
  veclendiving     :       0.00          0          0
  intdiving        :       0.00          0          0
  actconsdiving    :       0.00          0          0
  objpscostdiving  :       0.00          0          0
  rootsoldiving    :       0.00          0          0
  linesearchdiving :       0.00          0          0
  guideddiving     :       0.00          0          0
  octane           :       0.00          0          0
  rens             :       0.00          0          0
  rins             :       0.00          0          0
  localbranching   :       0.00          0          0
  mutation         :       0.00          0          0
  crossover        :       0.00          0          0
  dins             :       0.00          0          0
LP                 :       Time      Calls Iterations  Iter/call   Iter/sec
  primal LP        :       0.00          0          0       0.00          -
  dual LP          :       0.00          3        156      52.00          -
  barrier LP       :       0.00          0          0       0.00          -
  diving/probing LP:       0.01         21        161       7.67          -
  strong branching :       0.00          0          0       0.00          -
    (at root node) :          -          0          0       0.00          -
  conflict analysis:       0.00          0          0       0.00          -
B&B Tree           :
  number of runs   :          1
  nodes            :          1
  nodes (total)    :          1
  nodes left       :          0
  max depth        :          0
  max depth (total):          0
  backtracks       :          0 (0.0%)
  delayed cutoffs  :          0
  repropagations   :          0 (0 domain reductions, 0 cutoffs)
  avg switch length:       2.00
  switching time   :       0.00
Solution           :
  Solutions found  :          0 (0 improvements)
  Primal Bound     : infeasible
  Dual Bound       :          -
  Gap              :       0.00 %
  Root Dual Bound  :          -
